p cnf 117 113
-1 88 -90 -91 -92 -93 -94 -95 -96 -97 -98 -99 -100 -101 -106 -107 -108 -109 -111 -112 -113 -114 -115 -116 -117 0 
-2 3 4 5 6 7 8 9 35 36 37 38 39 42 43 44 55 60 65 73 74 89 -90 -91 -92 -93 -94 -95 -96 -97 -98 -99 -100 -101 -106 -107 -108 -109 -111 -112 -113 -114 -115 -116 -117 0 
-3 2 4 5 6 7 8 9 35 36 37 38 39 42 43 44 55 60 65 73 74 89 -90 -91 -92 -93 -94 -95 -96 -97 -98 -99 -100 -101 -106 -107 -108 -109 -111 -112 -113 -114 -115 -116 -117 0 
-4 2 3 5 6 7 8 9 35 36 37 38 39 42 43 44 55 60 65 73 74 89 -90 -91 -92 -93 -94 -95 -96 -97 -98 -99 -100 -101 -106 -107 -108 -109 -111 -112 -113 -114 -115 -116 -117 0 
-5 2 3 4 6 7 8 9 35 36 37 38 39 42 43 44 55 60 65 73 74 89 -90 -91 -92 -93 -94 -95 -96 -97 -98 -99 -100 -101 -106 -107 -108 -109 -111 -112 -113 -114 -115 -116 -117 0 
-6 2 3 4 5 7 8 9 35 36 37 38 39 42 43 44 55 60 65 73 74 89 -90 -91 -92 -93 -94 -95 -96 -97 -98 -99 -100 -101 -106 -107 -108 -109 -111 -112 -113 -114 -115 -116 -117 0 
-7 2 3 4 5 6 8 9 35 36 37 38 39 42 43 44 55 60 65 73 74 89 -90 -91 -92 -93 -94 -95 -96 -97 -98 -99 -100 -101 -106 -107 -108 -109 -111 -112 -113 -114 -115 -116 -117 0 
-8 2 3 4 5 6 7 9 35 36 37 38 39 42 43 44 55 60 65 73 74 89 -90 -91 -92 -93 -94 -95 -96 -97 -98 -99 -100 -101 -106 -107 -108 -109 -111 -112 -113 -114 -115 -116 -117 0 
-9 2 3 4 5 6 7 8 35 36 37 38 39 42 43 44 55 60 65 73 74 89 -90 -91 -92 -93 -94 -95 -96 -97 -98 -99 -100 -101 -106 -107 -108 -109 -111 -112 -113 -114 -115 -116 -117 0 
-10 12 15 24 28 32 33 47 49 63 64 66 70 75 76 77 78 84 90 -91 -92 -93 -94 -95 -96 -97 -98 -99 -100 -101 -106 -107 -108 -109 -111 -112 -113 -114 -115 -116 -117 0 
-11 16 51 -12 10 15 24 28 32 33 47 49 63 64 66 70 75 76 77 78 84 91 -90 -92 -93 -94 -95 -96 -97 -98 -99 -100 -101 -106 -107 -108 -109 -111 -112 -113 -114 -115 -116 -117 0 
-11 16 51 -13 14 17 19 21 25 30 50 69 71 91 -90 -92 -93 -94 -95 -96 -97 -98 -99 -100 -101 -106 -107 -108 -109 -111 -112 -113 -114 -115 -116 -117 0 
-14 13 17 19 21 25 30 50 69 71 92 -90 -91 -93 -94 -95 -96 -97 -98 -99 -100 -101 -106 -107 -108 -109 -111 -112 -113 -114 -115 -116 -117 0 
-15 10 12 24 28 32 33 47 49 63 64 66 70 75 76 77 78 84 93 -90 -91 -92 -94 -95 -96 -97 -98 -99 -100 -101 -106 -107 -108 -109 -111 -112 -113 -114 -115 -116 -117 0 
-16 11 51 -13 14 17 19 21 25 30 50 69 71 94 -90 -91 -92 -93 -95 -96 -97 -98 -99 -100 -101 -106 -107 -108 -109 -111 -112 -113 -114 -115 -116 -117 0 
-17 13 14 19 21 25 30 50 69 71 -18 22 29 31 62 95 -90 -91 -92 -93 -94 -96 -97 -98 -99 -100 -101 -106 -107 -108 -109 -111 -112 -113 -114 -115 -116 -117 0 
-19 13 14 17 21 25 30 50 69 71 -20 59 61 96 -90 -91 -92 -93 -94 -95 -97 -98 -99 -100 -101 -106 -107 -108 -109 -111 -112 -113 -114 -115 -116 -117 0 
-21 13 14 17 19 25 30 50 69 71 97 -90 -91 -92 -93 -94 -95 -96 -98 -99 -100 -101 -106 -107 -108 -109 -111 -112 -113 -114 -115 -116 -117 0 
-22 18 29 31 62 -23 27 96 -90 -91 -92 -93 -94 -95 -97 -98 -99 -100 -101 -106 -107 -108 -109 -111 -112 -113 -114 -115 -116 -117 0 
-24 10 12 15 28 32 33 47 49 63 64 66 70 75 76 77 78 84 98 -90 -91 -92 -93 -94 -95 -96 -97 -99 -100 -101 -106 -107 -108 -109 -111 -112 -113 -114 -115 -116 -117 0 
-25 13 14 17 19 21 30 50 69 71 90 -91 -92 -93 -94 -95 -96 -97 -98 -99 -100 -101 -106 -107 -108 -109 -111 -112 -113 -114 -115 -116 -117 0 
-26 -25 13 14 17 19 21 30 50 69 71 90 -91 -92 -93 -94 -95 -96 -97 -98 -99 -100 -101 -106 -107 -108 -109 -111 -112 -113 -114 -115 -116 -117 0 
-27 23 -25 13 14 17 19 21 30 50 69 71 90 -91 -92 -93 -94 -95 -96 -97 -98 -99 -100 -101 -106 -107 -108 -109 -111 -112 -113 -114 -115 -116 -117 0 
-28 10 12 15 24 32 33 47 49 63 64 66 70 75 76 77 78 84 99 -90 -91 -92 -93 -94 -95 -96 -97 -98 -100 -101 -106 -107 -108 -109 -111 -112 -113 -114 -115 -116 -117 0 
-29 18 22 31 62 90 -91 -92 -93 -94 -95 -96 -97 -98 -99 -100 -101 -106 -107 -108 -109 -111 -112 -113 -114 -115 -116 -117 0 
-30 13 14 17 19 21 25 50 69 71 100 -90 -91 -92 -93 -94 -95 -96 -97 -98 -99 -101 -106 -107 -108 -109 -111 -112 -113 -114 -115 -116 -117 0 
-31 18 22 29 62 -32 10 12 15 24 28 33 47 49 63 64 66 70 75 76 77 78 84 101 -90 -91 -92 -93 -94 -95 -96 -97 -98 -99 -100 -106 -107 -108 -109 -111 -112 -113 -114 -115 -116 -117 0 
-31 18 22 29 62 -33 10 12 15 24 28 32 47 49 63 64 66 70 75 76 77 78 84 101 -90 -91 -92 -93 -94 -95 -96 -97 -98 -99 -100 -106 -107 -108 -109 -111 -112 -113 -114 -115 -116 -117 0 
-16 11 51 89 -90 -91 -92 -93 -94 -95 -96 -97 -98 -99 -100 -101 -106 -107 -108 -109 -111 -112 -113 -114 -115 -116 -117 0 
-34 87 102 -90 -91 -92 -93 -94 -95 -96 -97 -98 -99 -100 -101 -106 -107 -108 -109 -111 -112 -113 -114 -115 -116 -117 0 
-34 87 103 -90 -91 -92 -93 -94 -95 -96 -97 -98 -99 -100 -101 -106 -107 -108 -109 -111 -112 -113 -114 -115 -116 -117 0 
-4 2 3 5 6 7 8 9 35 36 37 38 39 42 43 44 55 60 65 73 74 104 -90 -91 -92 -93 -94 -95 -96 -97 -98 -99 -100 -101 -106 -107 -108 -109 -111 -112 -113 -114 -115 -116 -117 0 
-3 2 4 5 6 7 8 9 35 36 37 38 39 42 43 44 55 60 65 73 74 88 -90 -91 -92 -93 -94 -95 -96 -97 -98 -99 -100 -101 -106 -107 -108 -109 -111 -112 -113 -114 -115 -116 -117 0 
-35 2 3 4 5 6 7 8 9 36 37 38 39 42 43 44 55 60 65 73 74 104 -90 -91 -92 -93 -94 -95 -96 -97 -98 -99 -100 -101 -106 -107 -108 -109 -111 -112 -113 -114 -115 -116 -117 0 
-36 2 3 4 5 6 7 8 9 35 37 38 39 42 43 44 55 60 65 73 74 104 -90 -91 -92 -93 -94 -95 -96 -97 -98 -99 -100 -101 -106 -107 -108 -109 -111 -112 -113 -114 -115 -116 -117 0 
-9 2 3 4 5 6 7 8 35 36 37 38 39 42 43 44 55 60 65 73 74 104 -90 -91 -92 -93 -94 -95 -96 -97 -98 -99 -100 -101 -106 -107 -108 -109 -111 -112 -113 -114 -115 -116 -117 0 
-37 2 3 4 5 6 7 8 9 35 36 38 39 42 43 44 55 60 65 73 74 89 -90 -91 -92 -93 -94 -95 -96 -97 -98 -99 -100 -101 -106 -107 -108 -109 -111 -112 -113 -114 -115 -116 -117 0 
-38 2 3 4 5 6 7 8 9 35 36 37 39 42 43 44 55 60 65 73 74 89 -90 -91 -92 -93 -94 -95 -96 -97 -98 -99 -100 -101 -106 -107 -108 -109 -111 -112 -113 -114 -115 -116 -117 0 
-39 2 3 4 5 6 7 8 9 35 36 37 38 42 43 44 55 60 65 73 74 89 -90 -91 -92 -93 -94 -95 -96 -97 -98 -99 -100 -101 -106 -107 -108 -109 -111 -112 -113 -114 -115 -116 -117 0 
-2 3 4 5 6 7 8 9 35 36 37 38 39 42 43 44 55 60 65 73 74 102 -90 -91 -92 -93 -94 -95 -96 -97 -98 -99 -100 -101 -106 -107 -108 -109 -111 -112 -113 -114 -115 -116 -117 0 
-5 2 3 4 6 7 8 9 35 36 37 38 39 42 43 44 55 60 65 73 74 102 -90 -91 -92 -93 -94 -95 -96 -97 -98 -99 -100 -101 -106 -107 -108 -109 -111 -112 -113 -114 -115 -116 -117 0 
-3 2 4 5 6 7 8 9 35 36 37 38 39 42 43 44 55 60 65 73 74 102 -90 -91 -92 -93 -94 -95 -96 -97 -98 -99 -100 -101 -106 -107 -108 -109 -111 -112 -113 -114 -115 -116 -117 0 
-9 2 3 4 5 6 7 8 35 36 37 38 39 42 43 44 55 60 65 73 74 102 -90 -91 -92 -93 -94 -95 -96 -97 -98 -99 -100 -101 -106 -107 -108 -109 -111 -112 -113 -114 -115 -116 -117 0 
-39 2 3 4 5 6 7 8 9 35 36 37 38 42 43 44 55 60 65 73 74 102 -90 -91 -92 -93 -94 -95 -96 -97 -98 -99 -100 -101 -106 -107 -108 -109 -111 -112 -113 -114 -115 -116 -117 0 
-8 2 3 4 5 6 7 9 35 36 37 38 39 42 43 44 55 60 65 73 74 102 -90 -91 -92 -93 -94 -95 -96 -97 -98 -99 -100 -101 -106 -107 -108 -109 -111 -112 -113 -114 -115 -116 -117 0 
-6 2 3 4 5 7 8 9 35 36 37 38 39 42 43 44 55 60 65 73 74 102 -90 -91 -92 -93 -94 -95 -96 -97 -98 -99 -100 -101 -106 -107 -108 -109 -111 -112 -113 -114 -115 -116 -117 0 
-37 2 3 4 5 6 7 8 9 35 36 38 39 42 43 44 55 60 65 73 74 102 -90 -91 -92 -93 -94 -95 -96 -97 -98 -99 -100 -101 -106 -107 -108 -109 -111 -112 -113 -114 -115 -116 -117 0 
-38 2 3 4 5 6 7 8 9 35 36 37 39 42 43 44 55 60 65 73 74 102 -90 -91 -92 -93 -94 -95 -96 -97 -98 -99 -100 -101 -106 -107 -108 -109 -111 -112 -113 -114 -115 -116 -117 0 
-4 2 3 5 6 7 8 9 35 36 37 38 39 42 43 44 55 60 65 73 74 102 -90 -91 -92 -93 -94 -95 -96 -97 -98 -99 -100 -101 -106 -107 -108 -109 -111 -112 -113 -114 -115 -116 -117 0 
-40 54 105 -90 -91 -92 -93 -94 -95 -96 -97 -98 -99 -100 -101 -106 -107 -108 -109 -111 -112 -113 -114 -115 -116 -117 0 
-41 88 -90 -91 -92 -93 -94 -95 -96 -97 -98 -99 -100 -101 -106 -107 -108 -109 -111 -112 -113 -114 -115 -116 -117 0 
-42 2 3 4 5 6 7 8 9 35 36 37 38 39 43 44 55 60 65 73 74 89 -90 -91 -92 -93 -94 -95 -96 -97 -98 -99 -100 -101 -106 -107 -108 -109 -111 -112 -113 -114 -115 -116 -117 0 
-43 2 3 4 5 6 7 8 9 35 36 37 38 39 42 44 55 60 65 73 74 89 -90 -91 -92 -93 -94 -95 -96 -97 -98 -99 -100 -101 -106 -107 -108 -109 -111 -112 -113 -114 -115 -116 -117 0 
-43 2 3 4 5 6 7 8 9 35 36 37 38 39 42 44 55 60 65 73 74 102 -90 -91 -92 -93 -94 -95 -96 -97 -98 -99 -100 -101 -106 -107 -108 -109 -111 -112 -113 -114 -115 -116 -117 0 
-44 2 3 4 5 6 7 8 9 35 36 37 38 39 42 43 55 60 65 73 74 89 -90 -91 -92 -93 -94 -95 -96 -97 -98 -99 -100 -101 -106 -107 -108 -109 -111 -112 -113 -114 -115 -116 -117 0 
-36 2 3 4 5 6 7 8 9 35 37 38 39 42 43 44 55 60 65 73 74 89 -90 -91 -92 -93 -94 -95 -96 -97 -98 -99 -100 -101 -106 -107 -108 -109 -111 -112 -113 -114 -115 -116 -117 0 
-45 104 -90 -91 -92 -93 -94 -95 -96 -97 -98 -99 -100 -101 -106 -107 -108 -109 -111 -112 -113 -114 -115 -116 -117 0 
-46 -30 13 14 17 19 21 25 50 69 71 100 -90 -91 -92 -93 -94 -95 -96 -97 -98 -99 -101 -106 -107 -108 -109 -111 -112 -113 -114 -115 -116 -117 0 
-47 10 12 15 24 28 32 33 49 63 64 66 70 75 76 77 78 84 100 -90 -91 -92 -93 -94 -95 -96 -97 -98 -99 -101 -106 -107 -108 -109 -111 -112 -113 -114 -115 -116 -117 0 
-48 72 -49 10 12 15 24 28 32 33 47 63 64 66 70 75 76 77 78 84 106 -90 -91 -92 -93 -94 -95 -96 -97 -98 -99 -100 -101 -107 -108 -109 -111 -112 -113 -114 -115 -116 -117 0 
-50 13 14 17 19 21 25 30 69 71 107 -90 -91 -92 -93 -94 -95 -96 -97 -98 -99 -100 -101 -106 -108 -109 -111 -112 -113 -114 -115 -116 -117 0 
-51 11 16 -47 10 12 15 24 28 32 33 49 63 64 66 70 75 76 77 78 84 100 -90 -91 -92 -93 -94 -95 -96 -97 -98 -99 -101 -106 -107 -108 -109 -111 -112 -113 -114 -115 -116 -117 0 
-52 -53 108 -90 -91 -92 -93 -94 -95 -96 -97 -98 -99 -100 -101 -106 -107 -109 -111 -112 -113 -114 -115 -116 -117 0 
-54 40 103 -90 -91 -92 -93 -94 -95 -96 -97 -98 -99 -100 -101 -106 -107 -108 -109 -111 -112 -113 -114 -115 -116 -117 0 
-42 2 3 4 5 6 7 8 9 35 36 37 38 39 43 44 55 60 65 73 74 102 -90 -91 -92 -93 -94 -95 -96 -97 -98 -99 -100 -101 -106 -107 -108 -109 -111 -112 -113 -114 -115 -116 -117 0 
-38 2 3 4 5 6 7 8 9 35 36 37 39 42 43 44 55 60 65 73 74 104 -90 -91 -92 -93 -94 -95 -96 -97 -98 -99 -100 -101 -106 -107 -108 -109 -111 -112 -113 -114 -115 -116 -117 0 
-55 2 3 4 5 6 7 8 9 35 36 37 38 39 42 43 44 60 65 73 74 88 -90 -91 -92 -93 -94 -95 -96 -97 -98 -99 -100 -101 -106 -107 -108 -109 -111 -112 -113 -114 -115 -116 -117 0 
-43 2 3 4 5 6 7 8 9 35 36 37 38 39 42 44 55 60 65 73 74 104 -90 -91 -92 -93 -94 -95 -96 -97 -98 -99 -100 -101 -106 -107 -108 -109 -111 -112 -113 -114 -115 -116 -117 0 
-51 11 16 88 -90 -91 -92 -93 -94 -95 -96 -97 -98 -99 -100 -101 -106 -107 -108 -109 -111 -112 -113 -114 -115 -116 -117 0 
-56 105 -90 -91 -92 -93 -94 -95 -96 -97 -98 -99 -100 -101 -106 -107 -108 -109 -111 -112 -113 -114 -115 -116 -117 0 
-57 102 -90 -91 -92 -93 -94 -95 -96 -97 -98 -99 -100 -101 -106 -107 -108 -109 -111 -112 -113 -114 -115 -116 -117 0 
-58 67 102 -90 -91 -92 -93 -94 -95 -96 -97 -98 -99 -100 -101 -106 -107 -108 -109 -111 -112 -113 -114 -115 -116 -117 0 
-59 20 61 108 -90 -91 -92 -93 -94 -95 -96 -97 -98 -99 -100 -101 -106 -107 -109 -111 -112 -113 -114 -115 -116 -117 0 
-16 11 51 103 -90 -91 -92 -93 -94 -95 -96 -97 -98 -99 -100 -101 -106 -107 -108 -109 -111 -112 -113 -114 -115 -116 -117 0 
-60 2 3 4 5 6 7 8 9 35 36 37 38 39 42 43 44 55 65 73 74 104 -90 -91 -92 -93 -94 -95 -96 -97 -98 -99 -100 -101 -106 -107 -108 -109 -111 -112 -113 -114 -115 -116 -117 0 
-61 20 59 88 -90 -91 -92 -93 -94 -95 -96 -97 -98 -99 -100 -101 -106 -107 -108 -109 -111 -112 -113 -114 -115 -116 -117 0 
-62 18 22 29 31 109 -90 -91 -92 -93 -94 -95 -96 -97 -98 -99 -100 -101 -106 -107 -108 -111 -112 -113 -114 -115 -116 -117 0 
-52 108 -90 -91 -92 -93 -94 -95 -96 -97 -98 -99 -100 -101 -106 -107 -109 -111 -112 -113 -114 -115 -116 -117 0 
-63 10 12 15 24 28 32 33 47 49 64 66 70 75 76 77 78 84 104 -90 -91 -92 -93 -94 -95 -96 -97 -98 -99 -100 -101 -106 -107 -108 -109 -111 -112 -113 -114 -115 -116 -117 0 
-64 10 12 15 24 28 32 33 47 49 63 66 70 75 76 77 78 84 104 -90 -91 -92 -93 -94 -95 -96 -97 -98 -99 -100 -101 -106 -107 -108 -109 -111 -112 -113 -114 -115 -116 -117 0 
-65 2 3 4 5 6 7 8 9 35 36 37 38 39 42 43 44 55 60 73 74 110 -90 -91 -92 -93 -94 -95 -96 -97 -98 -99 -100 -101 -106 -107 -108 -109 -111 -112 -113 -114 -115 -116 -117 0 
-66 10 12 15 24 28 32 33 47 49 63 64 70 75 76 77 78 84 104 -90 -91 -92 -93 -94 -95 -96 -97 -98 -99 -100 -101 -106 -107 -108 -109 -111 -112 -113 -114 -115 -116 -117 0 
-67 58 105 -90 -91 -92 -93 -94 -95 -96 -97 -98 -99 -100 -101 -106 -107 -108 -109 -111 -112 -113 -114 -115 -116 -117 0 
-22 18 29 31 62 -68 93 -90 -91 -92 -94 -95 -96 -97 -98 -99 -100 -101 -106 -107 -108 -109 -111 -112 -113 -114 -115 -116 -117 0 
-69 13 14 17 19 21 25 30 50 71 111 -90 -91 -92 -93 -94 -95 -96 -97 -98 -99 -100 -101 -106 -107 -108 -109 -112 -113 -114 -115 -116 -117 0 
-70 10 12 15 24 28 32 33 47 49 63 64 66 75 76 77 78 84 112 -90 -91 -92 -93 -94 -95 -96 -97 -98 -99 -100 -101 -106 -107 -108 -109 -111 -113 -114 -115 -116 -117 0 
-71 13 14 17 19 21 25 30 50 69 99 -90 -91 -92 -93 -94 -95 -96 -97 -98 -100 -101 -106 -107 -108 -109 -111 -112 -113 -114 -115 -116 -117 0 
-71 13 14 17 19 21 25 30 50 69 -72 48 99 -90 -91 -92 -93 -94 -95 -96 -97 -98 -100 -101 -106 -107 -108 -109 -111 -112 -113 -114 -115 -116 -117 0 
-26 104 -90 -91 -92 -93 -94 -95 -96 -97 -98 -99 -100 -101 -106 -107 -108 -109 -111 -112 -113 -114 -115 -116 -117 0 
-16 11 51 88 -90 -91 -92 -93 -94 -95 -96 -97 -98 -99 -100 -101 -106 -107 -108 -109 -111 -112 -113 -114 -115 -116 -117 0 
-73 2 3 4 5 6 7 8 9 35 36 37 38 39 42 43 44 55 60 65 74 88 -90 -91 -92 -93 -94 -95 -96 -97 -98 -99 -100 -101 -106 -107 -108 -109 -111 -112 -113 -114 -115 -116 -117 0 
-16 11 51 110 -90 -91 -92 -93 -94 -95 -96 -97 -98 -99 -100 -101 -106 -107 -108 -109 -111 -112 -113 -114 -115 -116 -117 0 
-34 87 89 -90 -91 -92 -93 -94 -95 -96 -97 -98 -99 -100 -101 -106 -107 -108 -109 -111 -112 -113 -114 -115 -116 -117 0 
-16 11 51 104 -90 -91 -92 -93 -94 -95 -96 -97 -98 -99 -100 -101 -106 -107 -108 -109 -111 -112 -113 -114 -115 -116 -117 0 
-74 2 3 4 5 6 7 8 9 35 36 37 38 39 42 43 44 55 60 65 73 89 -90 -91 -92 -93 -94 -95 -96 -97 -98 -99 -100 -101 -106 -107 -108 -109 -111 -112 -113 -114 -115 -116 -117 0 
-16 11 51 102 -90 -91 -92 -93 -94 -95 -96 -97 -98 -99 -100 -101 -106 -107 -108 -109 -111 -112 -113 -114 -115 -116 -117 0 
-75 10 12 15 24 28 32 33 47 49 63 64 66 70 76 77 78 84 104 -90 -91 -92 -93 -94 -95 -96 -97 -98 -99 -100 -101 -106 -107 -108 -109 -111 -112 -113 -114 -115 -116 -117 0 
-76 10 12 15 24 28 32 33 47 49 63 64 66 70 75 77 78 84 89 -90 -91 -92 -93 -94 -95 -96 -97 -98 -99 -100 -101 -106 -107 -108 -109 -111 -112 -113 -114 -115 -116 -117 0 
-77 10 12 15 24 28 32 33 47 49 63 64 66 70 75 76 78 84 89 -90 -91 -92 -93 -94 -95 -96 -97 -98 -99 -100 -101 -106 -107 -108 -109 -111 -112 -113 -114 -115 -116 -117 0 
-78 10 12 15 24 28 32 33 47 49 63 64 66 70 75 76 77 84 89 -90 -91 -92 -93 -94 -95 -96 -97 -98 -99 -100 -101 -106 -107 -108 -109 -111 -112 -113 -114 -115 -116 -117 0 
-57 104 -90 -91 -92 -93 -94 -95 -96 -97 -98 -99 -100 -101 -106 -107 -108 -109 -111 -112 -113 -114 -115 -116 -117 0 
-79 81 82 113 -90 -91 -92 -93 -94 -95 -96 -97 -98 -99 -100 -101 -106 -107 -108 -109 -111 -112 -114 -115 -116 -117 0 
-80 85 90 -91 -92 -93 -94 -95 -96 -97 -98 -99 -100 -101 -106 -107 -108 -109 -111 -112 -113 -114 -115 -116 -117 0 
-81 79 82 114 -90 -91 -92 -93 -94 -95 -96 -97 -98 -99 -100 -101 -106 -107 -108 -109 -111 -112 -113 -115 -116 -117 0 
-82 79 81 115 -90 -91 -92 -93 -94 -95 -96 -97 -98 -99 -100 -101 -106 -107 -108 -109 -111 -112 -113 -114 -116 -117 0 
-83 108 -90 -91 -92 -93 -94 -95 -96 -97 -98 -99 -100 -101 -106 -107 -109 -111 -112 -113 -114 -115 -116 -117 0 
-84 10 12 15 24 28 32 33 47 49 63 64 66 70 75 76 77 78 116 -90 -91 -92 -93 -94 -95 -96 -97 -98 -99 -100 -101 -106 -107 -108 -109 -111 -112 -113 -114 -115 -117 0 
-85 80 117 -90 -91 -92 -93 -94 -95 -96 -97 -98 -99 -100 -101 -106 -107 -108 -109 -111 -112 -113 -114 -115 -116 0 
-86 88 -90 -91 -92 -93 -94 -95 -96 -97 -98 -99 -100 -101 -106 -107 -108 -109 -111 -112 -113 -114 -115 -116 -117 0 
-58 67 89 -90 -91 -92 -93 -94 -95 -96 -97 -98 -99 -100 -101 -106 -107 -108 -109 -111 -112 -113 -114 -115 -116 -117 0 
-87 34 88 -90 -91 -92 -93 -94 -95 -96 -97 -98 -99 -100 -101 -106 -107 -108 -109 -111 -112 -113 -114 -115 -116 -117 0 
-9 2 3 4 5 6 7 8 35 36 37 38 39 42 43 44 55 60 65 73 74 110 -90 -91 -92 -93 -94 -95 -96 -97 -98 -99 -100 -101 -106 -107 -108 -109 -111 -112 -113 -114 -115 -116 -117 0 
-34 87 104 -90 -91 -92 -93 -94 -95 -96 -97 -98 -99 -100 -101 -106 -107 -108 -109 -111 -112 -113 -114 -115 -116 -117 0 
